NAME: random-13-916
TYPE: TSP
COMMENT: size=13 seed=916
DIMENSION: 28
EDGE_WEIGHT_TYPE: EUC_2D
NODE_COORD_SECTION
+0 212 444
-0 212 444
+1 144 752
-1 483 461
+2 34 612
-2 943 815
+3 305 415
-3 36 953
+4 274 235
-4 343 125
+5 394 841
-5 711 568
+6 535 774
-6 336 742
+7 949 486
-7 901 10
+8 712 751
-8 882 728
+9 151 760
-9 535 938
+10 550 252
-10 321 346
+11 648 718
-11 882 286
+12 601 859
-12 722 409
+13 129 307
-13 25 496
PRECEDENCE_SECTION
+0 -0
+1 -1
+2 -2
+3 -3
+4 -4
+5 -5
+6 -6
+7 -7
+8 -8
+9 -9
+10 -10
+11 -11
+12 -12
+13 -13
EOF
